dates = {'2022-05-03','2022-05-04','2022-05-05','2022-05-06','2022-05-07','2022-05-08','2022-05-09'};

daysOfWeek = [Tuesday,Wednesday,Thursday,Friday,Saturday,Sunday,Monday];

% For this week, how many people will be here.
numPeople = [40,40,40,40,40,40,25];

% Physical workers need 50 to 100 % more nutrients per day.
numPhysicalWorkers = [14.5,14.5,14.5,14.5,14.5,14.5,14.5];

% Males need +25% more nutrients per day.
numMen = [30,30,30,30,30,30,30];

% Num people who do not eat categories. contains = {none, meat, milk, gluten, egg, nut, seed, sugars}
numRefusals = [| 0,1,0,0,4,4,5,5 | 0,1,0,0,4,4,5,5 | 0,1,0,0,4,4,5,5 | 0,1,0,0,4,4,5,5 | 0,1,0,0,4,4,5,5 | 0,1,0,0,4,4,5,5 | 0,1,0,0,0,0,1,1 |];

